10
2147483647 81 24 28 67 92 83 37 30 52 
81 2147483647 57 41 29 62 85 63 55 78 
24 57 2147483647 52 7 73 82 30 47 88 
28 41 52 2147483647 89 33 17 23 48 3 
67 29 7 89 2147483647 90 66 53 18 74 
92 62 73 33 90 2147483647 17 52 80 92 
83 85 82 17 66 17 2147483647 77 40 2 
37 63 30 23 53 52 77 2147483647 60 91 
30 55 47 48 18 80 40 60 2147483647 49 
52 78 88 3 74 92 2 91 49 2147483647 
